min: 3*x0 +4*x1 +12*x2 +5*x3 +10*x4 +13*x5 +1*x6 +6*x7 +2*x8 +7*x9 +11*x10 +8*x11 +9*x12;
1*x0 +1*x1 +1*x2 +1*x3 +1*x4 +1*x5 +1*x6 +1*x7 +1*x8 +1*x9 +1*x10 +1*x11 +1*x12 = 8;
1*x2 +1*x5 +1*x3 +1*x0 < 4;
1*x1 +1*x7 +1*x5 +1*x3 +1*x0 < 5;
1*x1 +1*x8 +1*x10 +1*x5 +1*x3 +1*x0 < 6;
1*x2 +1*x9 +1*x6 +1*x3 +1*x0 < 5;
1*x1 +1*x7 +1*x9 +1*x6 +1*x3 +1*x0 < 6;
1*x1 +1*x8 +1*x10 +1*x9 +1*x6 +1*x3 +1*x0 < 7;
1*x2 +1*x4 +1*x0 < 3;
1*x1 +1*x7 +1*x4 +1*x0 < 4;
1*x1 +1*x8 +1*x10 +1*x4 +1*x0 < 5;
1*x2 +1*x7 +1*x1 < 3;
1*x2 +1*x10 +1*x8 +1*x1 < 4;
1*x4 +1*x5 +1*x3 < 3;
1*x4 +1*x9 +1*x6 +1*x3 < 4;
1*x8 +1*x10 +1*x7 < 3;
1*x5 +1*x9 +1*x6 < 3;
